c commet
p cnf 125 1365
-28 3 -33 8 -38 13 -43 18 -48 23 0
-30 105 -35 110 -40 115 -45 120 -50 125 0
-27 52 -32 57 -37 62 -42 67 -47 72 0
-10 -15 -20 -25 4 9 14 19 0
-4 54 -9 59 -14 64 -19 69 -24 74 0
-78 103 -83 108 -88 113 -93 118 -98 123 0
-1 76 -6 81 -11 86 -16 91 -21 96 0
63 0
26 0
-77 -82 101 -87 106 116 -92 111 121 -97 0
-102 -107 76 -112 81 -117 86 96 -122 91 0
-80 55 -85 60 -90 65 -95 70 -100 75 0
-29 79 -34 84 -39 89 -44 94 -49 99 0
-26 -31 2 12 -36 7 17 -41 12 22 -46 0
-77 56 -82 51 61 -87 56 66 -92 61 71 -97 66 0
1 2 3 4 5 0
1 2 3 4 -5 0
1 2 3 -4 5 0
1 2 3 -4 -5 0
1 2 -3 4 5 0
1 2 -3 4 -5 0
1 2 -3 -4 5 0
1 2 -3 -4 -5 0
1 -2 3 4 5 0
1 -2 3 4 -5 0
1 -2 3 -4 5 0
1 -2 3 -4 -5 0
1 -2 -3 4 5 0
1 -2 -3 4 -5 0
1 -2 -3 -4 5 0
-1 2 3 4 5 0
-1 2 3 4 -5 0
-1 2 3 -4 5 0
-1 2 3 -4 -5 0
-1 2 -3 4 5 0
-1 2 -3 4 -5 0
-1 2 -3 -4 5 0
-1 -2 3 4 5 0
-1 -2 3 4 -5 0
-1 -2 3 -4 5 0
-1 -2 -3 4 5 0
-1 -2 -3 -4 -5 0
2 3 4 5 6 0
2 3 4 5 -6 0
2 3 4 -5 6 0
2 3 4 -5 -6 0
2 3 -4 5 6 0
2 3 -4 5 -6 0
2 3 -4 -5 6 0
2 3 -4 -5 -6 0
2 -3 4 5 6 0
2 -3 4 5 -6 0
2 -3 4 -5 6 0
2 -3 4 -5 -6 0
2 -3 -4 5 6 0
2 -3 -4 5 -6 0
2 -3 -4 -5 6 0
-2 3 4 5 6 0
-2 3 4 5 -6 0
-2 3 4 -5 6 0
-2 3 4 -5 -6 0
-2 3 -4 5 6 0
-2 3 -4 5 -6 0
-2 3 -4 -5 6 0
-2 -3 4 5 6 0
-2 -3 4 5 -6 0
-2 -3 4 -5 6 0
-2 -3 -4 5 6 0
-2 -3 -4 -5 -6 0
3 4 5 6 7 0
3 4 5 6 -7 0
3 4 5 -6 7 0
3 4 5 -6 -7 0
3 4 -5 6 7 0
3 4 -5 6 -7 0
3 4 -5 -6 7 0
3 4 -5 -6 -7 0
3 -4 5 6 7 0
3 -4 5 6 -7 0
3 -4 5 -6 7 0
3 -4 5 -6 -7 0
3 -4 -5 6 7 0
3 -4 -5 6 -7 0
3 -4 -5 -6 7 0
-3 4 5 6 7 0
-3 4 5 6 -7 0
-3 4 5 -6 7 0
-3 4 5 -6 -7 0
-3 4 -5 6 7 0
-3 4 -5 6 -7 0
-3 4 -5 -6 7 0
-3 -4 5 6 7 0
-3 -4 5 6 -7 0
-3 -4 5 -6 7 0
-3 -4 -5 6 7 0
-3 -4 -5 -6 -7 0
4 5 6 7 8 0
4 5 6 7 -8 0
4 5 6 -7 8 0
4 5 6 -7 -8 0
4 5 -6 7 8 0
4 5 -6 7 -8 0
4 5 -6 -7 8 0
4 5 -6 -7 -8 0
4 -5 6 7 8 0
4 -5 6 7 -8 0
4 -5 6 -7 8 0
4 -5 6 -7 -8 0
4 -5 -6 7 8 0
4 -5 -6 7 -8 0
4 -5 -6 -7 8 0
-4 5 6 7 8 0
-4 5 6 7 -8 0
-4 5 6 -7 8 0
-4 5 6 -7 -8 0
-4 5 -6 7 8 0
-4 5 -6 7 -8 0
-4 5 -6 -7 8 0
-4 -5 6 7 8 0
-4 -5 6 7 -8 0
-4 -5 6 -7 8 0
-4 -5 -6 7 8 0
-4 -5 -6 -7 -8 0
5 6 7 8 9 0
5 6 7 8 -9 0
5 6 7 -8 9 0
5 6 7 -8 -9 0
5 6 -7 8 9 0
5 6 -7 8 -9 0
5 6 -7 -8 9 0
5 6 -7 -8 -9 0
5 -6 7 8 9 0
5 -6 7 8 -9 0
5 -6 7 -8 9 0
5 -6 7 -8 -9 0
5 -6 -7 8 9 0
5 -6 -7 8 -9 0
5 -6 -7 -8 9 0
-5 6 7 8 9 0
-5 6 7 8 -9 0
-5 6 7 -8 9 0
-5 6 7 -8 -9 0
-5 6 -7 8 9 0
-5 6 -7 8 -9 0
-5 6 -7 -8 9 0
-5 -6 7 8 9 0
-5 -6 7 8 -9 0
-5 -6 7 -8 9 0
-5 -6 -7 8 9 0
-5 -6 -7 -8 -9 0
6 7 8 9 10 0
6 7 8 9 -10 0
6 7 8 -9 10 0
6 7 8 -9 -10 0
6 7 -8 9 10 0
6 7 -8 9 -10 0
6 7 -8 -9 10 0
6 7 -8 -9 -10 0
6 -7 8 9 10 0
6 -7 8 9 -10 0
6 -7 8 -9 10 0
6 -7 8 -9 -10 0
6 -7 -8 9 10 0
6 -7 -8 9 -10 0
6 -7 -8 -9 10 0
-6 7 8 9 10 0
-6 7 8 9 -10 0
-6 7 8 -9 10 0
-6 7 8 -9 -10 0
-6 7 -8 9 10 0
-6 7 -8 9 -10 0
-6 7 -8 -9 10 0
-6 -7 8 9 10 0
-6 -7 8 9 -10 0
-6 -7 8 -9 10 0
-6 -7 -8 9 10 0
-6 -7 -8 -9 -10 0
7 8 9 10 11 0
7 8 9 10 -11 0
7 8 9 -10 11 0
7 8 9 -10 -11 0
7 8 -9 10 11 0
7 8 -9 10 -11 0
7 8 -9 -10 11 0
7 8 -9 -10 -11 0
7 -8 9 10 11 0
7 -8 9 10 -11 0
7 -8 9 -10 11 0
7 -8 9 -10 -11 0
7 -8 -9 10 11 0
7 -8 -9 10 -11 0
7 -8 -9 -10 11 0
-7 8 9 10 11 0
-7 8 9 10 -11 0
-7 8 9 -10 11 0
-7 8 9 -10 -11 0
-7 8 -9 10 11 0
-7 8 -9 10 -11 0
-7 8 -9 -10 11 0
-7 -8 9 10 11 0
-7 -8 9 10 -11 0
-7 -8 9 -10 11 0
-7 -8 -9 10 11 0
-7 -8 -9 -10 -11 0
8 9 10 11 12 0
8 9 10 11 -12 0
8 9 10 -11 12 0
8 9 10 -11 -12 0
8 9 -10 11 12 0
8 9 -10 11 -12 0
8 9 -10 -11 12 0
8 9 -10 -11 -12 0
8 -9 10 11 12 0
8 -9 10 11 -12 0
8 -9 10 -11 12 0
8 -9 10 -11 -12 0
8 -9 -10 11 12 0
8 -9 -10 11 -12 0
8 -9 -10 -11 12 0
-8 9 10 11 12 0
-8 9 10 11 -12 0
-8 9 10 -11 12 0
-8 9 10 -11 -12 0
-8 9 -10 11 12 0
-8 9 -10 11 -12 0
-8 9 -10 -11 12 0
-8 -9 10 11 12 0
-8 -9 10 11 -12 0
-8 -9 10 -11 12 0
-8 -9 -10 11 12 0
-8 -9 -10 -11 -12 0
9 10 11 12 13 0
9 10 11 12 -13 0
9 10 11 -12 13 0
9 10 11 -12 -13 0
9 10 -11 12 13 0
9 10 -11 12 -13 0
9 10 -11 -12 13 0
9 10 -11 -12 -13 0
9 -10 11 12 13 0
9 -10 11 12 -13 0
9 -10 11 -12 13 0
9 -10 11 -12 -13 0
9 -10 -11 12 13 0
9 -10 -11 12 -13 0
9 -10 -11 -12 13 0
-9 10 11 12 13 0
-9 10 11 12 -13 0
-9 10 11 -12 13 0
-9 10 11 -12 -13 0
-9 10 -11 12 13 0
-9 10 -11 12 -13 0
-9 10 -11 -12 13 0
-9 -10 11 12 13 0
-9 -10 11 12 -13 0
-9 -10 11 -12 13 0
-9 -10 -11 12 13 0
-9 -10 -11 -12 -13 0
10 11 12 13 14 0
10 11 12 13 -14 0
10 11 12 -13 14 0
10 11 12 -13 -14 0
10 11 -12 13 14 0
10 11 -12 13 -14 0
10 11 -12 -13 14 0
10 11 -12 -13 -14 0
10 -11 12 13 14 0
10 -11 12 13 -14 0
10 -11 12 -13 14 0
10 -11 12 -13 -14 0
10 -11 -12 13 14 0
10 -11 -12 13 -14 0
10 -11 -12 -13 14 0
-10 11 12 13 14 0
-10 11 12 13 -14 0
-10 11 12 -13 14 0
-10 11 12 -13 -14 0
-10 11 -12 13 14 0
-10 11 -12 13 -14 0
-10 11 -12 -13 14 0
-10 -11 12 13 14 0
-10 -11 12 13 -14 0
-10 -11 12 -13 14 0
-10 -11 -12 13 14 0
-10 -11 -12 -13 -14 0
11 12 13 14 15 0
11 12 13 14 -15 0
11 12 13 -14 15 0
11 12 13 -14 -15 0
11 12 -13 14 15 0
11 12 -13 14 -15 0
11 12 -13 -14 15 0
11 12 -13 -14 -15 0
11 -12 13 14 15 0
11 -12 13 14 -15 0
11 -12 13 -14 15 0
11 -12 13 -14 -15 0
11 -12 -13 14 15 0
11 -12 -13 14 -15 0
11 -12 -13 -14 15 0
-11 12 13 14 15 0
-11 12 13 14 -15 0
-11 12 13 -14 15 0
-11 12 13 -14 -15 0
-11 12 -13 14 15 0
-11 12 -13 14 -15 0
-11 12 -13 -14 15 0
-11 -12 13 14 15 0
-11 -12 13 14 -15 0
-11 -12 13 -14 15 0
-11 -12 -13 14 15 0
-11 -12 -13 -14 -15 0
12 13 14 15 16 0
12 13 14 15 -16 0
12 13 14 -15 16 0
12 13 14 -15 -16 0
12 13 -14 15 16 0
12 13 -14 15 -16 0
12 13 -14 -15 16 0
12 13 -14 -15 -16 0
12 -13 14 15 16 0
12 -13 14 15 -16 0
12 -13 14 -15 16 0
12 -13 14 -15 -16 0
12 -13 -14 15 16 0
12 -13 -14 15 -16 0
12 -13 -14 -15 16 0
-12 13 14 15 16 0
-12 13 14 15 -16 0
-12 13 14 -15 16 0
-12 13 14 -15 -16 0
-12 13 -14 15 16 0
-12 13 -14 15 -16 0
-12 13 -14 -15 16 0
-12 -13 14 15 16 0
-12 -13 14 15 -16 0
-12 -13 14 -15 16 0
-12 -13 -14 15 16 0
-12 -13 -14 -15 -16 0
13 14 15 16 17 0
13 14 15 16 -17 0
13 14 15 -16 17 0
13 14 15 -16 -17 0
13 14 -15 16 17 0
13 14 -15 16 -17 0
13 14 -15 -16 17 0
13 14 -15 -16 -17 0
13 -14 15 16 17 0
13 -14 15 16 -17 0
13 -14 15 -16 17 0
13 -14 15 -16 -17 0
13 -14 -15 16 17 0
13 -14 -15 16 -17 0
13 -14 -15 -16 17 0
-13 14 15 16 17 0
-13 14 15 16 -17 0
-13 14 15 -16 17 0
-13 14 15 -16 -17 0
-13 14 -15 16 17 0
-13 14 -15 16 -17 0
-13 14 -15 -16 17 0
-13 -14 15 16 17 0
-13 -14 15 16 -17 0
-13 -14 15 -16 17 0
-13 -14 -15 16 17 0
-13 -14 -15 -16 -17 0
14 15 16 17 18 0
14 15 16 17 -18 0
14 15 16 -17 18 0
14 15 16 -17 -18 0
14 15 -16 17 18 0
14 15 -16 17 -18 0
14 15 -16 -17 18 0
14 15 -16 -17 -18 0
14 -15 16 17 18 0
14 -15 16 17 -18 0
14 -15 16 -17 18 0
14 -15 16 -17 -18 0
14 -15 -16 17 18 0
14 -15 -16 17 -18 0
14 -15 -16 -17 18 0
-14 15 16 17 18 0
-14 15 16 17 -18 0
-14 15 16 -17 18 0
-14 15 16 -17 -18 0
-14 15 -16 17 18 0
-14 15 -16 17 -18 0
-14 15 -16 -17 18 0
-14 -15 16 17 18 0
-14 -15 16 17 -18 0
-14 -15 16 -17 18 0
-14 -15 -16 17 18 0
-14 -15 -16 -17 -18 0
15 16 17 18 19 0
15 16 17 18 -19 0
15 16 17 -18 19 0
15 16 17 -18 -19 0
15 16 -17 18 19 0
15 16 -17 18 -19 0
15 16 -17 -18 19 0
15 16 -17 -18 -19 0
15 -16 17 18 19 0
15 -16 17 18 -19 0
15 -16 17 -18 19 0
15 -16 17 -18 -19 0
15 -16 -17 18 19 0
15 -16 -17 18 -19 0
15 -16 -17 -18 19 0
-15 16 17 18 19 0
-15 16 17 18 -19 0
-15 16 17 -18 19 0
-15 16 17 -18 -19 0
-15 16 -17 18 19 0
-15 16 -17 18 -19 0
-15 16 -17 -18 19 0
-15 -16 17 18 19 0
-15 -16 17 18 -19 0
-15 -16 17 -18 19 0
-15 -16 -17 18 19 0
-15 -16 -17 -18 -19 0
16 17 18 19 20 0
16 17 18 19 -20 0
16 17 18 -19 20 0
16 17 18 -19 -20 0
16 17 -18 19 20 0
16 17 -18 19 -20 0
16 17 -18 -19 20 0
16 17 -18 -19 -20 0
16 -17 18 19 20 0
16 -17 18 19 -20 0
16 -17 18 -19 20 0
16 -17 18 -19 -20 0
16 -17 -18 19 20 0
16 -17 -18 19 -20 0
16 -17 -18 -19 20 0
-16 17 18 19 20 0
-16 17 18 19 -20 0
-16 17 18 -19 20 0
-16 17 18 -19 -20 0
-16 17 -18 19 20 0
-16 17 -18 19 -20 0
-16 17 -18 -19 20 0
-16 -17 18 19 20 0
-16 -17 18 19 -20 0
-16 -17 18 -19 20 0
-16 -17 -18 19 20 0
-16 -17 -18 -19 -20 0
17 18 19 20 21 0
17 18 19 20 -21 0
17 18 19 -20 21 0
17 18 19 -20 -21 0
17 18 -19 20 21 0
17 18 -19 20 -21 0
17 18 -19 -20 21 0
17 18 -19 -20 -21 0
17 -18 19 20 21 0
17 -18 19 20 -21 0
17 -18 19 -20 21 0
17 -18 19 -20 -21 0
17 -18 -19 20 21 0
17 -18 -19 20 -21 0
17 -18 -19 -20 21 0
-17 18 19 20 21 0
-17 18 19 20 -21 0
-17 18 19 -20 21 0
-17 18 19 -20 -21 0
-17 18 -19 20 21 0
-17 18 -19 20 -21 0
-17 18 -19 -20 21 0
-17 -18 19 20 21 0
-17 -18 19 20 -21 0
-17 -18 19 -20 21 0
-17 -18 -19 20 21 0
-17 -18 -19 -20 -21 0
18 19 20 21 22 0
18 19 20 21 -22 0
18 19 20 -21 22 0
18 19 20 -21 -22 0
18 19 -20 21 22 0
18 19 -20 21 -22 0
18 19 -20 -21 22 0
18 19 -20 -21 -22 0
18 -19 20 21 22 0
18 -19 20 21 -22 0
18 -19 20 -21 22 0
18 -19 20 -21 -22 0
18 -19 -20 21 22 0
18 -19 -20 21 -22 0
18 -19 -20 -21 22 0
-18 19 20 21 22 0
-18 19 20 21 -22 0
-18 19 20 -21 22 0
-18 19 20 -21 -22 0
-18 19 -20 21 22 0
-18 19 -20 21 -22 0
-18 19 -20 -21 22 0
-18 -19 20 21 22 0
-18 -19 20 21 -22 0
-18 -19 20 -21 22 0
-18 -19 -20 21 22 0
-18 -19 -20 -21 -22 0
19 20 21 22 23 0
19 20 21 22 -23 0
19 20 21 -22 23 0
19 20 21 -22 -23 0
19 20 -21 22 23 0
19 20 -21 22 -23 0
19 20 -21 -22 23 0
19 20 -21 -22 -23 0
19 -20 21 22 23 0
19 -20 21 22 -23 0
19 -20 21 -22 23 0
19 -20 21 -22 -23 0
19 -20 -21 22 23 0
19 -20 -21 22 -23 0
19 -20 -21 -22 23 0
-19 20 21 22 23 0
-19 20 21 22 -23 0
-19 20 21 -22 23 0
-19 20 21 -22 -23 0
-19 20 -21 22 23 0
-19 20 -21 22 -23 0
-19 20 -21 -22 23 0
-19 -20 21 22 23 0
-19 -20 21 22 -23 0
-19 -20 21 -22 23 0
-19 -20 -21 22 23 0
-19 -20 -21 -22 -23 0
20 21 22 23 24 0
20 21 22 23 -24 0
20 21 22 -23 24 0
20 21 22 -23 -24 0
20 21 -22 23 24 0
20 21 -22 23 -24 0
20 21 -22 -23 24 0
20 21 -22 -23 -24 0
20 -21 22 23 24 0
20 -21 22 23 -24 0
20 -21 22 -23 24 0
20 -21 22 -23 -24 0
20 -21 -22 23 24 0
20 -21 -22 23 -24 0
20 -21 -22 -23 24 0
-20 21 22 23 24 0
-20 21 22 23 -24 0
-20 21 22 -23 24 0
-20 21 22 -23 -24 0
-20 21 -22 23 24 0
-20 21 -22 23 -24 0
-20 21 -22 -23 24 0
-20 -21 22 23 24 0
-20 -21 22 23 -24 0
-20 -21 22 -23 24 0
-20 -21 -22 23 24 0
-20 -21 -22 -23 -24 0
21 22 23 24 25 0
21 22 23 24 -25 0
21 22 23 -24 25 0
21 22 23 -24 -25 0
21 22 -23 24 25 0
21 22 -23 24 -25 0
21 22 -23 -24 25 0
21 22 -23 -24 -25 0
21 -22 23 24 25 0
21 -22 23 24 -25 0
21 -22 23 -24 25 0
21 -22 23 -24 -25 0
21 -22 -23 24 25 0
21 -22 -23 24 -25 0
21 -22 -23 -24 25 0
-21 22 23 24 25 0
-21 22 23 24 -25 0
-21 22 23 -24 25 0
-21 22 23 -24 -25 0
-21 22 -23 24 25 0
-21 22 -23 24 -25 0
-21 22 -23 -24 25 0
-21 -22 23 24 25 0
-21 -22 23 24 -25 0
-21 -22 23 -24 25 0
-21 -22 -23 24 25 0
-21 -22 -23 -24 -25 0
22 23 24 25 26 0
22 23 24 25 -26 0
22 23 24 -25 26 0
22 23 24 -25 -26 0
22 23 -24 25 26 0
22 23 -24 25 -26 0
22 23 -24 -25 26 0
22 23 -24 -25 -26 0
22 -23 24 25 26 0
22 -23 24 25 -26 0
22 -23 24 -25 26 0
22 -23 24 -25 -26 0
22 -23 -24 25 26 0
22 -23 -24 25 -26 0
22 -23 -24 -25 26 0
-22 23 24 25 26 0
-22 23 24 25 -26 0
-22 23 24 -25 26 0
-22 23 24 -25 -26 0
-22 23 -24 25 26 0
-22 23 -24 25 -26 0
-22 23 -24 -25 26 0
-22 -23 24 25 26 0
-22 -23 24 25 -26 0
-22 -23 24 -25 26 0
-22 -23 -24 25 26 0
-22 -23 -24 -25 -26 0
23 24 25 26 27 0
23 24 25 26 -27 0
23 24 25 -26 27 0
23 24 25 -26 -27 0
23 24 -25 26 27 0
23 24 -25 26 -27 0
23 24 -25 -26 27 0
23 24 -25 -26 -27 0
23 -24 25 26 27 0
23 -24 25 26 -27 0
23 -24 25 -26 27 0
23 -24 25 -26 -27 0
23 -24 -25 26 27 0
23 -24 -25 26 -27 0
23 -24 -25 -26 27 0
-23 24 25 26 27 0
-23 24 25 26 -27 0
-23 24 25 -26 27 0
-23 24 25 -26 -27 0
-23 24 -25 26 27 0
-23 24 -25 26 -27 0
-23 24 -25 -26 27 0
-23 -24 25 26 27 0
-23 -24 25 26 -27 0
-23 -24 25 -26 27 0
-23 -24 -25 26 27 0
-23 -24 -25 -26 -27 0
24 25 26 27 28 0
24 25 26 27 -28 0
24 25 26 -27 28 0
24 25 26 -27 -28 0
24 25 -26 27 28 0
24 25 -26 27 -28 0
24 25 -26 -27 28 0
24 25 -26 -27 -28 0
24 -25 26 27 28 0
24 -25 26 27 -28 0
24 -25 26 -27 28 0
24 -25 26 -27 -28 0
24 -25 -26 27 28 0
24 -25 -26 27 -28 0
24 -25 -26 -27 28 0
-24 25 26 27 28 0
-24 25 26 27 -28 0
-24 25 26 -27 28 0
-24 25 26 -27 -28 0
-24 25 -26 27 28 0
-24 25 -26 27 -28 0
-24 25 -26 -27 28 0
-24 -25 26 27 28 0
-24 -25 26 27 -28 0
-24 -25 26 -27 28 0
-24 -25 -26 27 28 0
-24 -25 -26 -27 -28 0
25 26 27 28 29 0
25 26 27 28 -29 0
25 26 27 -28 29 0
25 26 27 -28 -29 0
25 26 -27 28 29 0
25 26 -27 28 -29 0
25 26 -27 -28 29 0
25 26 -27 -28 -29 0
25 -26 27 28 29 0
25 -26 27 28 -29 0
25 -26 27 -28 29 0
25 -26 27 -28 -29 0
25 -26 -27 28 29 0
25 -26 -27 28 -29 0
25 -26 -27 -28 29 0
-25 26 27 28 29 0
-25 26 27 28 -29 0
-25 26 27 -28 29 0
-25 26 27 -28 -29 0
-25 26 -27 28 29 0
-25 26 -27 28 -29 0
-25 26 -27 -28 29 0
-25 -26 27 28 29 0
-25 -26 27 28 -29 0
-25 -26 27 -28 29 0
-25 -26 -27 28 29 0
-25 -26 -27 -28 -29 0
1 2 3 4 5 0
1 2 3 4 -5 0
1 2 3 -4 5 0
1 2 3 -4 -5 0
1 2 -3 4 5 0
1 2 -3 4 -5 0
1 2 -3 -4 5 0
1 2 -3 -4 -5 0
1 -2 3 4 5 0
1 -2 3 4 -5 0
1 -2 3 -4 5 0
1 -2 3 -4 -5 0
1 -2 -3 4 5 0
1 -2 -3 4 -5 0
1 -2 -3 -4 5 0
-1 2 3 4 5 0
-1 2 3 4 -5 0
-1 2 3 -4 5 0
-1 2 3 -4 -5 0
-1 2 -3 4 5 0
-1 2 -3 4 -5 0
-1 2 -3 -4 5 0
-1 -2 3 4 5 0
-1 -2 3 4 -5 0
-1 -2 3 -4 5 0
-1 -2 -3 4 5 0
-1 -2 -3 -4 -5 0
2 3 4 5 6 0
2 3 4 5 -6 0
2 3 4 -5 6 0
2 3 4 -5 -6 0
2 3 -4 5 6 0
2 3 -4 5 -6 0
2 3 -4 -5 6 0
2 3 -4 -5 -6 0
2 -3 4 5 6 0
2 -3 4 5 -6 0
2 -3 4 -5 6 0
2 -3 4 -5 -6 0
2 -3 -4 5 6 0
2 -3 -4 5 -6 0
2 -3 -4 -5 6 0
-2 3 4 5 6 0
-2 3 4 5 -6 0
-2 3 4 -5 6 0
-2 3 4 -5 -6 0
-2 3 -4 5 6 0
-2 3 -4 5 -6 0
-2 3 -4 -5 6 0
-2 -3 4 5 6 0
-2 -3 4 5 -6 0
-2 -3 4 -5 6 0
-2 -3 -4 5 6 0
-2 -3 -4 -5 -6 0
3 4 5 6 7 0
3 4 5 6 -7 0
3 4 5 -6 7 0
3 4 5 -6 -7 0
3 4 -5 6 7 0
3 4 -5 6 -7 0
3 4 -5 -6 7 0
3 4 -5 -6 -7 0
3 -4 5 6 7 0
3 -4 5 6 -7 0
3 -4 5 -6 7 0
3 -4 5 -6 -7 0
3 -4 -5 6 7 0
3 -4 -5 6 -7 0
3 -4 -5 -6 7 0
-3 4 5 6 7 0
-3 4 5 6 -7 0
-3 4 5 -6 7 0
-3 4 5 -6 -7 0
-3 4 -5 6 7 0
-3 4 -5 6 -7 0
-3 4 -5 -6 7 0
-3 -4 5 6 7 0
-3 -4 5 6 -7 0
-3 -4 5 -6 7 0
-3 -4 -5 6 7 0
-3 -4 -5 -6 -7 0
4 5 6 7 8 0
4 5 6 7 -8 0
4 5 6 -7 8 0
4 5 6 -7 -8 0
4 5 -6 7 8 0
4 5 -6 7 -8 0
4 5 -6 -7 8 0
4 5 -6 -7 -8 0
4 -5 6 7 8 0
4 -5 6 7 -8 0
4 -5 6 -7 8 0
4 -5 6 -7 -8 0
4 -5 -6 7 8 0
4 -5 -6 7 -8 0
4 -5 -6 -7 8 0
-4 5 6 7 8 0
-4 5 6 7 -8 0
-4 5 6 -7 8 0
-4 5 6 -7 -8 0
-4 5 -6 7 8 0
-4 5 -6 7 -8 0
-4 5 -6 -7 8 0
-4 -5 6 7 8 0
-4 -5 6 7 -8 0
-4 -5 6 -7 8 0
-4 -5 -6 7 8 0
-4 -5 -6 -7 -8 0
5 6 7 8 9 0
5 6 7 8 -9 0
5 6 7 -8 9 0
5 6 7 -8 -9 0
5 6 -7 8 9 0
5 6 -7 8 -9 0
5 6 -7 -8 9 0
5 6 -7 -8 -9 0
5 -6 7 8 9 0
5 -6 7 8 -9 0
5 -6 7 -8 9 0
5 -6 7 -8 -9 0
5 -6 -7 8 9 0
5 -6 -7 8 -9 0
5 -6 -7 -8 9 0
-5 6 7 8 9 0
-5 6 7 8 -9 0
-5 6 7 -8 9 0
-5 6 7 -8 -9 0
-5 6 -7 8 9 0
-5 6 -7 8 -9 0
-5 6 -7 -8 9 0
-5 -6 7 8 9 0
-5 -6 7 8 -9 0
-5 -6 7 -8 9 0
-5 -6 -7 8 9 0
-5 -6 -7 -8 -9 0
26 27 28 29 30 0
26 27 28 29 -30 0
26 27 28 -29 30 0
26 27 28 -29 -30 0
26 27 -28 29 30 0
26 27 -28 29 -30 0
26 27 -28 -29 30 0
26 27 -28 -29 -30 0
26 -27 28 29 30 0
26 -27 28 29 -30 0
26 -27 28 -29 30 0
26 -27 28 -29 -30 0
26 -27 -28 29 30 0
26 -27 -28 29 -30 0
26 -27 -28 -29 30 0
-26 27 28 29 30 0
-26 27 28 29 -30 0
-26 27 28 -29 30 0
-26 27 28 -29 -30 0
-26 27 -28 29 30 0
-26 27 -28 29 -30 0
-26 27 -28 -29 30 0
-26 -27 28 29 30 0
-26 -27 28 29 -30 0
-26 -27 28 -29 30 0
-26 -27 -28 29 30 0
-26 -27 -28 -29 -30 0
27 28 29 30 31 0
27 28 29 30 -31 0
27 28 29 -30 31 0
27 28 29 -30 -31 0
27 28 -29 30 31 0
27 28 -29 30 -31 0
27 28 -29 -30 31 0
27 28 -29 -30 -31 0
27 -28 29 30 31 0
27 -28 29 30 -31 0
27 -28 29 -30 31 0
27 -28 29 -30 -31 0
27 -28 -29 30 31 0
27 -28 -29 30 -31 0
27 -28 -29 -30 31 0
-27 28 29 30 31 0
-27 28 29 30 -31 0
-27 28 29 -30 31 0
-27 28 29 -30 -31 0
-27 28 -29 30 31 0
-27 28 -29 30 -31 0
-27 28 -29 -30 31 0
-27 -28 29 30 31 0
-27 -28 29 30 -31 0
-27 -28 29 -30 31 0
-27 -28 -29 30 31 0
-27 -28 -29 -30 -31 0
28 29 30 31 32 0
28 29 30 31 -32 0
28 29 30 -31 32 0
28 29 30 -31 -32 0
28 29 -30 31 32 0
28 29 -30 31 -32 0
28 29 -30 -31 32 0
28 29 -30 -31 -32 0
28 -29 30 31 32 0
28 -29 30 31 -32 0
28 -29 30 -31 32 0
28 -29 30 -31 -32 0
28 -29 -30 31 32 0
28 -29 -30 31 -32 0
28 -29 -30 -31 32 0
-28 29 30 31 32 0
-28 29 30 31 -32 0
-28 29 30 -31 32 0
-28 29 30 -31 -32 0
-28 29 -30 31 32 0
-28 29 -30 31 -32 0
-28 29 -30 -31 32 0
-28 -29 30 31 32 0
-28 -29 30 31 -32 0
-28 -29 30 -31 32 0
-28 -29 -30 31 32 0
-28 -29 -30 -31 -32 0
29 30 31 32 33 0
29 30 31 32 -33 0
29 30 31 -32 33 0
29 30 31 -32 -33 0
29 30 -31 32 33 0
29 30 -31 32 -33 0
29 30 -31 -32 33 0
29 30 -31 -32 -33 0
29 -30 31 32 33 0
29 -30 31 32 -33 0
29 -30 31 -32 33 0
29 -30 31 -32 -33 0
29 -30 -31 32 33 0
29 -30 -31 32 -33 0
29 -30 -31 -32 33 0
-29 30 31 32 33 0
-29 30 31 32 -33 0
-29 30 31 -32 33 0
-29 30 31 -32 -33 0
-29 30 -31 32 33 0
-29 30 -31 32 -33 0
-29 30 -31 -32 33 0
-29 -30 31 32 33 0
-29 -30 31 32 -33 0
-29 -30 31 -32 33 0
-29 -30 -31 32 33 0
-29 -30 -31 -32 -33 0
30 31 32 33 34 0
30 31 32 33 -34 0
30 31 32 -33 34 0
30 31 32 -33 -34 0
30 31 -32 33 34 0
30 31 -32 33 -34 0
30 31 -32 -33 34 0
30 31 -32 -33 -34 0
30 -31 32 33 34 0
30 -31 32 33 -34 0
30 -31 32 -33 34 0
30 -31 32 -33 -34 0
30 -31 -32 33 34 0
30 -31 -32 33 -34 0
30 -31 -32 -33 34 0
-30 31 32 33 34 0
-30 31 32 33 -34 0
-30 31 32 -33 34 0
-30 31 32 -33 -34 0
-30 31 -32 33 34 0
-30 31 -32 33 -34 0
-30 31 -32 -33 34 0
-30 -31 32 33 34 0
-30 -31 32 33 -34 0
-30 -31 32 -33 34 0
-30 -31 -32 33 34 0
-30 -31 -32 -33 -34 0
51 52 53 54 55 0
51 52 53 54 -55 0
51 52 53 -54 55 0
51 52 53 -54 -55 0
51 52 -53 54 55 0
51 52 -53 54 -55 0
51 52 -53 -54 55 0
51 52 -53 -54 -55 0
51 -52 53 54 55 0
51 -52 53 54 -55 0
51 -52 53 -54 55 0
51 -52 53 -54 -55 0
51 -52 -53 54 55 0
51 -52 -53 54 -55 0
51 -52 -53 -54 55 0
-51 52 53 54 55 0
-51 52 53 54 -55 0
-51 52 53 -54 55 0
-51 52 53 -54 -55 0
-51 52 -53 54 55 0
-51 52 -53 54 -55 0
-51 52 -53 -54 55 0
-51 -52 53 54 55 0
-51 -52 53 54 -55 0
-51 -52 53 -54 55 0
-51 -52 -53 54 55 0
-51 -52 -53 -54 -55 0
52 53 54 55 56 0
52 53 54 55 -56 0
52 53 54 -55 56 0
52 53 54 -55 -56 0
52 53 -54 55 56 0
52 53 -54 55 -56 0
52 53 -54 -55 56 0
52 53 -54 -55 -56 0
52 -53 54 55 56 0
52 -53 54 55 -56 0
52 -53 54 -55 56 0
52 -53 54 -55 -56 0
52 -53 -54 55 56 0
52 -53 -54 55 -56 0
52 -53 -54 -55 56 0
-52 53 54 55 56 0
-52 53 54 55 -56 0
-52 53 54 -55 56 0
-52 53 54 -55 -56 0
-52 53 -54 55 56 0
-52 53 -54 55 -56 0
-52 53 -54 -55 56 0
-52 -53 54 55 56 0
-52 -53 54 55 -56 0
-52 -53 54 -55 56 0
-52 -53 -54 55 56 0
-52 -53 -54 -55 -56 0
53 54 55 56 57 0
53 54 55 56 -57 0
53 54 55 -56 57 0
53 54 55 -56 -57 0
53 54 -55 56 57 0
53 54 -55 56 -57 0
53 54 -55 -56 57 0
53 54 -55 -56 -57 0
53 -54 55 56 57 0
53 -54 55 56 -57 0
53 -54 55 -56 57 0
53 -54 55 -56 -57 0
53 -54 -55 56 57 0
53 -54 -55 56 -57 0
53 -54 -55 -56 57 0
-53 54 55 56 57 0
-53 54 55 56 -57 0
-53 54 55 -56 57 0
-53 54 55 -56 -57 0
-53 54 -55 56 57 0
-53 54 -55 56 -57 0
-53 54 -55 -56 57 0
-53 -54 55 56 57 0
-53 -54 55 56 -57 0
-53 -54 55 -56 57 0
-53 -54 -55 56 57 0
-53 -54 -55 -56 -57 0
54 55 56 57 58 0
54 55 56 57 -58 0
54 55 56 -57 58 0
54 55 56 -57 -58 0
54 55 -56 57 58 0
54 55 -56 57 -58 0
54 55 -56 -57 58 0
54 55 -56 -57 -58 0
54 -55 56 57 58 0
54 -55 56 57 -58 0
54 -55 56 -57 58 0
54 -55 56 -57 -58 0
54 -55 -56 57 58 0
54 -55 -56 57 -58 0
54 -55 -56 -57 58 0
-54 55 56 57 58 0
-54 55 56 57 -58 0
-54 55 56 -57 58 0
-54 55 56 -57 -58 0
-54 55 -56 57 58 0
-54 55 -56 57 -58 0
-54 55 -56 -57 58 0
-54 -55 56 57 58 0
-54 -55 56 57 -58 0
-54 -55 56 -57 58 0
-54 -55 -56 57 58 0
-54 -55 -56 -57 -58 0
55 56 57 58 59 0
55 56 57 58 -59 0
55 56 57 -58 59 0
55 56 57 -58 -59 0
55 56 -57 58 59 0
55 56 -57 58 -59 0
55 56 -57 -58 59 0
55 56 -57 -58 -59 0
55 -56 57 58 59 0
55 -56 57 58 -59 0
55 -56 57 -58 59 0
55 -56 57 -58 -59 0
55 -56 -57 58 59 0
55 -56 -57 58 -59 0
55 -56 -57 -58 59 0
-55 56 57 58 59 0
-55 56 57 58 -59 0
-55 56 57 -58 59 0
-55 56 57 -58 -59 0
-55 56 -57 58 59 0
-55 56 -57 58 -59 0
-55 56 -57 -58 59 0
-55 -56 57 58 59 0
-55 -56 57 58 -59 0
-55 -56 57 -58 59 0
-55 -56 -57 58 59 0
-55 -56 -57 -58 -59 0
76 77 78 79 80 0
76 77 78 79 -80 0
76 77 78 -79 80 0
76 77 78 -79 -80 0
76 77 -78 79 80 0
76 77 -78 79 -80 0
76 77 -78 -79 80 0
76 77 -78 -79 -80 0
76 -77 78 79 80 0
76 -77 78 79 -80 0
76 -77 78 -79 80 0
76 -77 78 -79 -80 0
76 -77 -78 79 80 0
76 -77 -78 79 -80 0
76 -77 -78 -79 80 0
-76 77 78 79 80 0
-76 77 78 79 -80 0
-76 77 78 -79 80 0
-76 77 78 -79 -80 0
-76 77 -78 79 80 0
-76 77 -78 79 -80 0
-76 77 -78 -79 80 0
-76 -77 78 79 80 0
-76 -77 78 79 -80 0
-76 -77 78 -79 80 0
-76 -77 -78 79 80 0
-76 -77 -78 -79 -80 0
77 78 79 80 81 0
77 78 79 80 -81 0
77 78 79 -80 81 0
77 78 79 -80 -81 0
77 78 -79 80 81 0
77 78 -79 80 -81 0
77 78 -79 -80 81 0
77 78 -79 -80 -81 0
77 -78 79 80 81 0
77 -78 79 80 -81 0
77 -78 79 -80 81 0
77 -78 79 -80 -81 0
77 -78 -79 80 81 0
77 -78 -79 80 -81 0
77 -78 -79 -80 81 0
-77 78 79 80 81 0
-77 78 79 80 -81 0
-77 78 79 -80 81 0
-77 78 79 -80 -81 0
-77 78 -79 80 81 0
-77 78 -79 80 -81 0
-77 78 -79 -80 81 0
-77 -78 79 80 81 0
-77 -78 79 80 -81 0
-77 -78 79 -80 81 0
-77 -78 -79 80 81 0
-77 -78 -79 -80 -81 0
78 79 80 81 82 0
78 79 80 81 -82 0
78 79 80 -81 82 0
78 79 80 -81 -82 0
78 79 -80 81 82 0
78 79 -80 81 -82 0
78 79 -80 -81 82 0
78 79 -80 -81 -82 0
78 -79 80 81 82 0
78 -79 80 81 -82 0
78 -79 80 -81 82 0
78 -79 80 -81 -82 0
78 -79 -80 81 82 0
78 -79 -80 81 -82 0
78 -79 -80 -81 82 0
-78 79 80 81 82 0
-78 79 80 81 -82 0
-78 79 80 -81 82 0
-78 79 80 -81 -82 0
-78 79 -80 81 82 0
-78 79 -80 81 -82 0
-78 79 -80 -81 82 0
-78 -79 80 81 82 0
-78 -79 80 81 -82 0
-78 -79 80 -81 82 0
-78 -79 -80 81 82 0
-78 -79 -80 -81 -82 0
79 80 81 82 83 0
79 80 81 82 -83 0
79 80 81 -82 83 0
79 80 81 -82 -83 0
79 80 -81 82 83 0
79 80 -81 82 -83 0
79 80 -81 -82 83 0
79 80 -81 -82 -83 0
79 -80 81 82 83 0
79 -80 81 82 -83 0
79 -80 81 -82 83 0
79 -80 81 -82 -83 0
79 -80 -81 82 83 0
79 -80 -81 82 -83 0
79 -80 -81 -82 83 0
-79 80 81 82 83 0
-79 80 81 82 -83 0
-79 80 81 -82 83 0
-79 80 81 -82 -83 0
-79 80 -81 82 83 0
-79 80 -81 82 -83 0
-79 80 -81 -82 83 0
-79 -80 81 82 83 0
-79 -80 81 82 -83 0
-79 -80 81 -82 83 0
-79 -80 -81 82 83 0
-79 -80 -81 -82 -83 0
80 81 82 83 84 0
80 81 82 83 -84 0
80 81 82 -83 84 0
80 81 82 -83 -84 0
80 81 -82 83 84 0
80 81 -82 83 -84 0
80 81 -82 -83 84 0
80 81 -82 -83 -84 0
80 -81 82 83 84 0
80 -81 82 83 -84 0
80 -81 82 -83 84 0
80 -81 82 -83 -84 0
80 -81 -82 83 84 0
80 -81 -82 83 -84 0
80 -81 -82 -83 84 0
-80 81 82 83 84 0
-80 81 82 83 -84 0
-80 81 82 -83 84 0
-80 81 82 -83 -84 0
-80 81 -82 83 84 0
-80 81 -82 83 -84 0
-80 81 -82 -83 84 0
-80 -81 82 83 84 0
-80 -81 82 83 -84 0
-80 -81 82 -83 84 0
-80 -81 -82 83 84 0
-80 -81 -82 -83 -84 0
101 102 103 104 105 0
101 102 103 104 -105 0
101 102 103 -104 105 0
101 102 103 -104 -105 0
101 102 -103 104 105 0
101 102 -103 104 -105 0
101 102 -103 -104 105 0
101 102 -103 -104 -105 0
101 -102 103 104 105 0
101 -102 103 104 -105 0
101 -102 103 -104 105 0
101 -102 103 -104 -105 0
101 -102 -103 104 105 0
101 -102 -103 104 -105 0
101 -102 -103 -104 105 0
-101 102 103 104 105 0
-101 102 103 104 -105 0
-101 102 103 -104 105 0
-101 102 103 -104 -105 0
-101 102 -103 104 105 0
-101 102 -103 104 -105 0
-101 102 -103 -104 105 0
-101 -102 103 104 105 0
-101 -102 103 104 -105 0
-101 -102 103 -104 105 0
-101 -102 -103 104 105 0
-101 -102 -103 -104 -105 0
102 103 104 105 106 0
102 103 104 105 -106 0
102 103 104 -105 106 0
102 103 104 -105 -106 0
102 103 -104 105 106 0
102 103 -104 105 -106 0
102 103 -104 -105 106 0
102 103 -104 -105 -106 0
102 -103 104 105 106 0
102 -103 104 105 -106 0
102 -103 104 -105 106 0
102 -103 104 -105 -106 0
102 -103 -104 105 106 0
102 -103 -104 105 -106 0
102 -103 -104 -105 106 0
-102 103 104 105 106 0
-102 103 104 105 -106 0
-102 103 104 -105 106 0
-102 103 104 -105 -106 0
-102 103 -104 105 106 0
-102 103 -104 105 -106 0
-102 103 -104 -105 106 0
-102 -103 104 105 106 0
-102 -103 104 105 -106 0
-102 -103 104 -105 106 0
-102 -103 -104 105 106 0
-102 -103 -104 -105 -106 0
103 104 105 106 107 0
103 104 105 106 -107 0
103 104 105 -106 107 0
103 104 105 -106 -107 0
103 104 -105 106 107 0
103 104 -105 106 -107 0
103 104 -105 -106 107 0
103 104 -105 -106 -107 0
103 -104 105 106 107 0
103 -104 105 106 -107 0
103 -104 105 -106 107 0
103 -104 105 -106 -107 0
103 -104 -105 106 107 0
103 -104 -105 106 -107 0
103 -104 -105 -106 107 0
-103 104 105 106 107 0
-103 104 105 106 -107 0
-103 104 105 -106 107 0
-103 104 105 -106 -107 0
-103 104 -105 106 107 0
-103 104 -105 106 -107 0
-103 104 -105 -106 107 0
-103 -104 105 106 107 0
-103 -104 105 106 -107 0
-103 -104 105 -106 107 0
-103 -104 -105 106 107 0
-103 -104 -105 -106 -107 0
104 105 106 107 108 0
104 105 106 107 -108 0
104 105 106 -107 108 0
104 105 106 -107 -108 0
104 105 -106 107 108 0
104 105 -106 107 -108 0
104 105 -106 -107 108 0
104 105 -106 -107 -108 0
104 -105 106 107 108 0
104 -105 106 107 -108 0
104 -105 106 -107 108 0
104 -105 106 -107 -108 0
104 -105 -106 107 108 0
104 -105 -106 107 -108 0
104 -105 -106 -107 108 0
-104 105 106 107 108 0
-104 105 106 107 -108 0
-104 105 106 -107 108 0
-104 105 106 -107 -108 0
-104 105 -106 107 108 0
-104 105 -106 107 -108 0
-104 105 -106 -107 108 0
-104 -105 106 107 108 0
-104 -105 106 107 -108 0
-104 -105 106 -107 108 0
-104 -105 -106 107 108 0
-104 -105 -106 -107 -108 0
105 106 107 108 109 0
105 106 107 108 -109 0
105 106 107 -108 109 0
105 106 107 -108 -109 0
105 106 -107 108 109 0
105 106 -107 108 -109 0
105 106 -107 -108 109 0
105 106 -107 -108 -109 0
105 -106 107 108 109 0
105 -106 107 108 -109 0
105 -106 107 -108 109 0
105 -106 107 -108 -109 0
105 -106 -107 108 109 0
105 -106 -107 108 -109 0
105 -106 -107 -108 109 0
-105 106 107 108 109 0
-105 106 107 108 -109 0
-105 106 107 -108 109 0
-105 106 107 -108 -109 0
-105 106 -107 108 109 0
-105 106 -107 108 -109 0
-105 106 -107 -108 109 0
-105 -106 107 108 109 0
-105 -106 107 108 -109 0
-105 -106 107 -108 109 0
-105 -106 -107 108 109 0
-105 -106 -107 -108 -109 0
